100
1000
250
0 0
34 26
34 26
34 26
34 26
34 26
34 26
34 26
34 26
34 26
34 26
34 26
34 26
34 26
34 26
34 26
34 26
34 26
34 26
34 26
34 26
34 26
34 26
34 26
34 26
34 26
-28 20
-28 20
-28 20
-28 20
-28 20
-28 20
-28 20
-28 20
-28 20
-28 20
-28 20
-28 20
-28 20
-28 20
-28 20
-28 20
-28 20
-28 20
-28 20
-28 20
-28 20
-28 20
-28 20
-28 20
-28 20
-19 -37
-19 -37
-19 -37
-19 -37
-19 -37
-19 -37
-19 -37
-19 -37
-19 -37
-19 -37
-19 -37
-19 -37
-19 -37
-19 -37
-19 -37
-19 -37
-19 -37
-19 -37
-19 -37
-19 -37
-19 -37
-19 -37
-19 -37
-19 -37
-19 -37
-16 18
-16 18
-16 18
-16 18
-16 18
-16 18
-16 18
-16 18
-16 18
-16 18
-16 18
-16 18
-16 18
-16 18
-16 18
-16 18
-16 18
-16 18
-16 18
-16 18
-16 18
-16 18
-16 18
-16 18
-16 18
-19 24
-19 24
-19 24
-19 24
-19 24
-19 24
-19 24
-19 24
-19 24
-19 24
-19 24
-19 24
-19 24
-19 24
-19 24
-19 24
-19 24
-19 24
-19 24
-19 24
-19 24
-19 24
-19 24
-19 24
-19 24
32 -19
-32 23
-1 10
-19 4
-11 -34
33 -4
17 -17
-28 15
27 -8
-36 33
12 -33
-13 -40
-13 -25
34 -40
-31 -29
-10 -10
17 7
34 -26
-15 14
19 -4
25 26
4 18
32 26
-16 16
39 18
32 -19
-32 23
-1 10
-19 4
-11 -34
33 -4
17 -17
-28 15
27 -8
-36 33
12 -33
-13 -40
-13 -25
34 -40
-31 -29
-10 -10
17 7
34 -26
-15 14
19 -4
25 26
4 18
32 26
-16 16
39 18
32 -19
-32 23
-1 10
-19 4
-11 -34
33 -4
17 -17
-28 15
27 -8
-36 33
12 -33
-13 -40
-13 -25
34 -40
-31 -29
-10 -10
17 7
34 -26
-15 14
19 -4
25 26
4 18
32 26
-16 16
39 18
32 -19
-32 23
-1 10
-19 4
-11 -34
33 -4
17 -17
-28 15
27 -8
-36 33
12 -33
-13 -40
-13 -25
34 -40
-31 -29
-10 -10
17 7
34 -26
-15 14
19 -4
25 26
4 18
32 26
-16 16
39 18
32 -19
-32 23
-1 10
-19 4
-11 -34
33 -4
17 -17
-28 15
27 -8
-36 33
12 -33
-13 -40
-13 -25
34 -40
-31 -29
-10 -10
17 7
34 -26
-15 14
19 -4
25 26
4 18
32 26
-16 16
39 18
0 0 
59
51
56
56
56
55
56
54
56
54
54
53
56
57
57
60
52
55
52
54
59
56
54
51
51
53
55
56
59
53
52
56
56
54
53
53
54
53
56
57
56
53
53
56
56
52
57
56
56
55
59
52
56
56
60
55
56
54
56
56
56
55
52
53
54
52
55
56
59
52
52
54
53
59
56
54
55
52
52
54
60
59
54
57
56
52
54
56
56
54
54
53
54
53
57
56
57
56
52
56
57
56
53
56
52
56
51
56
57
57
51
57
57
56
53
56
56
59
55
56
60
51
57
56
59
59
51
56
56
56
55
56
54
56
54
54
53
56
57
57
60
52
55
52
54
59
56
54
51
51
53
55
56
59
53
52
56
56
54
53
53
54
53
56
57
56
53
53
56
56
52
57
56
56
55
59
52
56
56
60
55
56
54
56
56
56
55
52
53
54
52
55
56
59
52
52
54
53
59
56
54
55
52
52
54
60
59
54
57
56
52
54
56
56
54
54
53
54
53
57
56
57
56
52
56
57
56
53
56
52
56
51
56
57
57
51
57
57
56
53
56
56
59
55
56
60
51
57
56
59
